assets/logs/9_12x12_clingo/9_12x12_clingo.solution.log

-------------------------------------------------
|111|133|119| 16| 10| 97|123|  0|  6| 13| 42|  9|
-------------------------------------------------
|117| 14|113| 99|121|  2|  8| 95|125|  7|  0|  3|
-------------------------------------------------
|135|109|131| 12| 18|105|127|  4| 15| 44| 11| 40|
-------------------------------------------------
|  0|115|101|107|129| 23| 17|  1| 93| 38|  5| 46|
-------------------------------------------------
| 98| 56|  1| 25|103| 20| 63| 80| 19| 48| 91| 36|
-------------------------------------------------
| 57| 70|100| 54| 61| 78| 21| 50| 65|126|  1| 87|
-------------------------------------------------
| 58| 96| 59| 72| 27| 52| 22| 76| 82| 89| 34|124|
-------------------------------------------------
| 68| 55| 45|102| 92| 74| 41| 67|128|122| 85|  0|
-------------------------------------------------
| 47| 60| 94| 29| 43| 24|130|120| 39| 84| 75| 32|
-------------------------------------------------
|112| 66| 53| 90|104|118| 69| 86|  1| 79| 37| 83|
-------------------------------------------------
| 62| 49|114|108| 31| 88| 26|132| 35| 73| 30| 77|
-------------------------------------------------
|  0|110| 64| 51|116|106| 33| 71| 28|134| 81|  0|
-------------------------------------------------

| n = 12 | k = 4 | coverage = 138, 95.83333333333333%
 Time 299.988
 Name 9_12x12_clingo

