assets/logs/9_12x12_clingo/9_12x12_clingo.log
clingo version 5.4.0
Reading from ...ts/logs/9_12x12_clingo/knights_tour.lp ...
Solving...
Answer: 1
occ(1,6,11) occ(1,5,3) occ(1,10,9) occ(1,4,8) occ(2,2,6) occ(3,2,12) coverage(6)
Optimization: -6
Answer: 2
occ(1,6,11) occ(1,5,3) occ(1,10,9) occ(1,4,8) occ(2,2,6) occ(3,2,12) coverage(7) occ(4,1,4) occ(6,2,2)
Optimization: -7
Answer: 3
occ(1,6,11) occ(1,5,3) occ(1,10,9) occ(1,4,8) occ(2,2,6) occ(3,2,12) coverage(87) occ(4,1,8) occ(5,1,10) occ(8,1,6) occ(11,1,11) occ(42,1,7) occ(46,1,3) occ(94,1,9) occ(98,1,5) occ(140,1,2) occ(9,2,9) occ(19,2,8) occ(38,2,4) occ(44,2,5) occ(48,2,1) occ(92,2,11) occ(96,2,7) occ(100,2,3) occ(6,3,7) occ(7,3,11) occ(10,3,5) occ(13,3,12) occ(17,3,10) occ(40,3,6) occ(73,3,8) occ(82,3,9) occ(102,3,1) occ(138,3,3) occ(21,4,9) occ(36,4,3) occ(50,4,2) occ(71,4,10) occ(76,4,5) occ(84,4,11) occ(90,4,12) occ(106,4,4) occ(136,4,1) occ(12,5,4) occ(15,5,11) occ(25,5,12) occ(34,5,5) occ(74,5,7) occ(75,5,9) occ(80,5,8) occ(88,5,10) occ(104,5,2) occ(108,5,6) occ(23,6,10) occ(32,6,7) occ(52,6,1) occ(69,6,9) occ(78,6,6) occ(86,6,12) occ(118,6,4) occ(134,6,2) occ(14,7,3) occ(27,7,11) occ(30,7,9) occ(31,7,7) occ(45,7,4) occ(65,7,12) occ(72,7,8) occ(77,7,10) occ(110,7,5) occ(116,7,6) occ(28,8,11) occ(29,8,9) occ(41,8,7) occ(54,8,2) occ(67,8,10) occ(79,8,12) occ(114,8,8) occ(120,8,5) occ(132,8,1) occ(16,9,4) occ(24,9,10) occ(33,9,8) occ(43,9,5) occ(47,9,3) occ(58,9,1) occ(63,9,11) occ(70,9,9) occ(112,9,6) occ(26,10,12) occ(39,10,8) occ(49,10,1) occ(56,10,3) occ(68,10,7) occ(81,10,11) occ(122,10,6) occ(130,10,2) occ(18,11,5) occ(22,11,9) occ(35,11,7) occ(53,11,4) occ(57,11,8) occ(60,11,2) occ(61,11,12) occ(64,11,6) occ(85,11,10) occ(126,11,3) occ(20,12,7) occ(37,12,9) occ(51,12,2) occ(55,12,6) occ(59,12,10) occ(62,12,4) occ(66,12,8) occ(83,12,12) occ(124,12,5) occ(128,12,1)
Optimization: -87
Answer: 4
occ(1,6,11) occ(1,5,3) occ(1,10,9) occ(1,4,8) occ(2,2,6) occ(3,2,12) coverage(89) occ(5,1,10) occ(8,1,4) occ(11,1,11) occ(16,1,6) occ(20,1,8) occ(42,1,7) occ(46,1,3) occ(94,1,9) occ(98,1,5) occ(140,1,2) occ(6,2,2) occ(9,2,9) occ(14,2,8) occ(22,2,10) occ(38,2,4) occ(44,2,5) occ(48,2,1) occ(92,2,11) occ(96,2,7) occ(100,2,3) occ(4,3,4) occ(7,3,11) occ(10,3,5) occ(13,3,12) occ(17,3,10) occ(18,3,7) occ(21,3,8) occ(40,3,6) occ(82,3,9) occ(102,3,1) occ(138,3,3) occ(12,4,7) occ(23,4,10) occ(24,4,9) occ(36,4,3) occ(50,4,2) occ(76,4,5) occ(84,4,11) occ(90,4,12) occ(106,4,4) occ(136,4,1) occ(15,5,11) occ(19,5,9) occ(25,5,12) occ(34,5,5) occ(74,5,7) occ(80,5,8) occ(88,5,10) occ(104,5,2) occ(108,5,6) occ(26,6,10) occ(32,6,7) occ(52,6,1) occ(78,6,6) occ(86,6,12) occ(118,6,4) occ(134,6,2) occ(27,7,11) occ(30,7,9) occ(31,7,7) occ(45,7,4) occ(65,7,12) occ(72,7,8) occ(110,7,5) occ(116,7,6) occ(28,8,11) occ(29,8,9) occ(41,8,7) occ(54,8,2) occ(67,8,10) occ(79,8,12) occ(114,8,8) occ(120,8,5) occ(132,8,1) occ(33,9,8) occ(43,9,5) occ(47,9,3) occ(58,9,1) occ(63,9,11) occ(69,9,12) occ(70,9,9) occ(77,9,10) occ(112,9,6) occ(39,10,8) occ(49,10,1) occ(56,10,3) occ(68,10,7) occ(71,10,10) occ(81,10,11) occ(87,10,12) occ(122,10,6) occ(130,10,2) occ(35,11,7) occ(53,11,4) occ(57,11,8) occ(60,11,2) occ(61,11,12) occ(64,11,6) occ(75,11,9) occ(85,11,10) occ(126,11,3) occ(37,12,9) occ(51,12,2) occ(55,12,6) occ(59,12,10) occ(62,12,4) occ(66,12,8) occ(73,12,11) occ(83,12,12) occ(124,12,5) occ(128,12,1)
Optimization: -89
Answer: 5
occ(1,6,11) occ(1,5,3) occ(1,10,9) occ(1,4,8) occ(2,2,6) occ(3,2,12) coverage(91) occ(5,1,10) occ(8,1,4) occ(11,1,11) occ(42,1,7) occ(46,1,3) occ(94,1,9) occ(98,1,5) occ(140,1,2) occ(6,2,2) occ(9,2,9) occ(19,2,8) occ(38,2,4) occ(44,2,5) occ(48,2,1) occ(92,2,11) occ(96,2,7) occ(100,2,3) occ(4,3,4) occ(7,3,11) occ(10,3,5) occ(13,3,12) occ(17,3,10) occ(40,3,6) occ(73,3,8) occ(82,3,9) occ(102,3,1) occ(138,3,3) occ(21,4,9) occ(36,4,3) occ(50,4,2) occ(71,4,10) occ(76,4,5) occ(84,4,11) occ(90,4,12) occ(106,4,4) occ(136,4,1) occ(12,5,4) occ(15,5,11) occ(25,5,12) occ(34,5,5) occ(74,5,7) occ(75,5,9) occ(80,5,8) occ(88,5,10) occ(104,5,2) occ(108,5,6) occ(23,6,10) occ(32,6,7) occ(52,6,1) occ(69,6,9) occ(78,6,6) occ(86,6,12) occ(118,6,4) occ(134,6,2) occ(14,7,3) occ(27,7,11) occ(30,7,9) occ(31,7,7) occ(45,7,4) occ(65,7,12) occ(72,7,8) occ(77,7,10) occ(110,7,5) occ(116,7,6) occ(28,8,11) occ(29,8,9) occ(41,8,7) occ(54,8,2) occ(67,8,10) occ(79,8,12) occ(114,8,8) occ(120,8,5) occ(132,8,1) occ(16,9,4) occ(33,9,8) occ(43,9,5) occ(47,9,3) occ(58,9,1) occ(63,9,11) occ(70,9,9) occ(89,9,10) occ(112,9,6) occ(26,10,10) occ(39,10,8) occ(49,10,1) occ(56,10,3) occ(68,10,7) occ(81,10,11) occ(87,10,12) occ(122,10,6) occ(130,10,2) occ(18,11,5) occ(22,11,9) occ(35,11,7) occ(53,11,4) occ(57,11,8) occ(60,11,2) occ(61,11,12) occ(64,11,6) occ(85,11,10) occ(126,11,3) occ(20,12,7) occ(24,12,11) occ(37,12,9) occ(51,12,2) occ(55,12,6) occ(59,12,10) occ(62,12,4) occ(66,12,8) occ(83,12,12) occ(124,12,5) occ(128,12,1)
Optimization: -91
Answer: 6
occ(1,6,11) occ(1,5,3) occ(1,10,9) occ(1,4,8) occ(2,2,6) occ(3,2,12) coverage(93) occ(5,1,10) occ(8,1,4) occ(11,1,11) occ(42,1,7) occ(46,1,3) occ(94,1,9) occ(98,1,5) occ(140,1,2) occ(6,2,2) occ(9,2,9) occ(19,2,8) occ(38,2,4) occ(44,2,5) occ(48,2,1) occ(92,2,11) occ(96,2,7) occ(100,2,3) occ(4,3,4) occ(7,3,11) occ(10,3,5) occ(13,3,12) occ(17,3,10) occ(40,3,6) occ(73,3,8) occ(82,3,9) occ(102,3,1) occ(138,3,3) occ(21,4,9) occ(36,4,3) occ(50,4,2) occ(71,4,10) occ(76,4,5) occ(84,4,11) occ(90,4,12) occ(106,4,4) occ(136,4,1) occ(12,5,4) occ(15,5,11) occ(25,5,12) occ(34,5,5) occ(74,5,7) occ(75,5,9) occ(80,5,8) occ(88,5,10) occ(104,5,2) occ(108,5,6) occ(23,6,10) occ(32,6,7) occ(52,6,1) occ(69,6,9) occ(78,6,6) occ(86,6,12) occ(118,6,4) occ(134,6,2) occ(14,7,3) occ(27,7,11) occ(30,7,9) occ(31,7,7) occ(45,7,4) occ(65,7,12) occ(72,7,8) occ(77,7,10) occ(110,7,5) occ(116,7,6) occ(28,8,11) occ(29,8,9) occ(41,8,7) occ(54,8,2) occ(67,8,10) occ(79,8,12) occ(114,8,8) occ(120,8,5) occ(132,8,1) occ(16,9,4) occ(33,9,8) occ(43,9,5) occ(47,9,3) occ(58,9,1) occ(63,9,11) occ(70,9,9) occ(89,9,10) occ(112,9,6) occ(26,10,10) occ(39,10,8) occ(49,10,1) occ(56,10,3) occ(68,10,7) occ(81,10,11) occ(87,10,12) occ(122,10,6) occ(130,10,2) occ(18,11,5) occ(22,11,9) occ(35,11,7) occ(53,11,4) occ(57,11,8) occ(60,11,2) occ(61,11,12) occ(64,11,6) occ(85,11,10) occ(91,11,11) occ(126,11,3) occ(20,12,7) occ(24,12,11) occ(37,12,9) occ(51,12,2) occ(55,12,6) occ(59,12,10) occ(62,12,4) occ(66,12,8) occ(83,12,12) occ(124,12,5) occ(128,12,1)
Optimization: -93
Answer: 7
occ(1,6,11) occ(1,5,3) occ(1,10,9) occ(1,4,8) occ(2,2,6) occ(3,2,12) coverage(95) occ(5,1,10) occ(8,1,4) occ(11,1,11) occ(42,1,7) occ(46,1,3) occ(94,1,9) occ(98,1,5) occ(140,1,2) occ(6,2,2) occ(9,2,9) occ(19,2,8) occ(38,2,4) occ(44,2,5) occ(48,2,1) occ(92,2,11) occ(96,2,7) occ(100,2,3) occ(4,3,4) occ(7,3,11) occ(10,3,5) occ(13,3,12) occ(17,3,10) occ(40,3,6) occ(73,3,8) occ(82,3,9) occ(102,3,1) occ(138,3,3) occ(21,4,9) occ(36,4,3) occ(50,4,2) occ(71,4,10) occ(76,4,5) occ(84,4,11) occ(90,4,12) occ(106,4,4) occ(136,4,1) occ(12,5,4) occ(15,5,11) occ(25,5,12) occ(34,5,5) occ(74,5,7) occ(75,5,9) occ(80,5,8) occ(88,5,10) occ(104,5,2) occ(108,5,6) occ(23,6,10) occ(32,6,7) occ(52,6,1) occ(69,6,9) occ(78,6,6) occ(86,6,12) occ(118,6,4) occ(134,6,2) occ(14,7,3) occ(27,7,11) occ(30,7,9) occ(31,7,7) occ(45,7,4) occ(65,7,12) occ(72,7,8) occ(77,7,10) occ(110,7,5) occ(116,7,6) occ(28,8,11) occ(29,8,9) occ(41,8,7) occ(54,8,2) occ(67,8,10) occ(79,8,12) occ(114,8,8) occ(120,8,5) occ(132,8,1) occ(16,9,4) occ(33,9,8) occ(43,9,5) occ(47,9,3) occ(58,9,1) occ(63,9,11) occ(70,9,9) occ(89,9,10) occ(93,9,12) occ(112,9,6) occ(26,10,10) occ(39,10,8) occ(49,10,1) occ(56,10,3) occ(68,10,7) occ(81,10,11) occ(87,10,12) occ(122,10,6) occ(130,10,2) occ(18,11,5) occ(22,11,9) occ(35,11,7) occ(53,11,4) occ(57,11,8) occ(60,11,2) occ(61,11,12) occ(64,11,6) occ(85,11,10) occ(91,11,11) occ(126,11,3) occ(20,12,7) occ(24,12,11) occ(37,12,9) occ(51,12,2) occ(55,12,6) occ(59,12,10) occ(62,12,4) occ(66,12,8) occ(83,12,12) occ(124,12,5) occ(128,12,1)
Optimization: -95
Answer: 8
occ(1,6,11) occ(1,5,3) occ(1,10,9) occ(1,4,8) occ(2,2,6) occ(3,2,12) coverage(97) occ(5,1,10) occ(8,1,4) occ(11,1,11) occ(42,1,7) occ(46,1,3) occ(94,1,9) occ(98,1,5) occ(140,1,2) occ(6,2,2) occ(9,2,9) occ(38,2,4) occ(44,2,5) occ(48,2,1) occ(71,2,8) occ(92,2,11) occ(96,2,7) occ(100,2,3) occ(4,3,4) occ(7,3,11) occ(10,3,5) occ(13,3,12) occ(17,3,10) occ(21,3,8) occ(40,3,6) occ(82,3,9) occ(102,3,1) occ(138,3,3) occ(23,4,10) occ(36,4,3) occ(50,4,2) occ(69,4,9) occ(73,4,7) occ(76,4,5) occ(84,4,11) occ(90,4,12) occ(106,4,4) occ(136,4,1) occ(12,5,4) occ(15,5,11) occ(19,5,9) occ(25,5,12) occ(34,5,5) occ(74,5,7) occ(80,5,8) occ(88,5,10) occ(104,5,2) occ(108,5,6) occ(32,6,7) occ(52,6,1) occ(67,6,10) occ(75,6,8) occ(78,6,6) occ(86,6,12) occ(118,6,4) occ(134,6,2) occ(14,7,3) occ(27,7,11) occ(30,7,9) occ(31,7,7) occ(45,7,4) occ(65,7,12) occ(72,7,8) occ(77,7,10) occ(110,7,5) occ(116,7,6) occ(28,8,11) occ(29,8,9) occ(41,8,7) occ(54,8,2) occ(79,8,12) occ(95,8,10) occ(114,8,8) occ(120,8,5) occ(132,8,1) occ(16,9,4) occ(33,9,8) occ(43,9,5) occ(47,9,3) occ(58,9,1) occ(63,9,11) occ(70,9,9) occ(89,9,10) occ(93,9,12) occ(112,9,6) occ(26,10,10) occ(39,10,8) occ(49,10,1) occ(56,10,3) occ(68,10,7) occ(81,10,11) occ(87,10,12) occ(122,10,6) occ(130,10,2) occ(18,11,5) occ(22,11,9) occ(35,11,7) occ(53,11,4) occ(57,11,8) occ(60,11,2) occ(61,11,12) occ(64,11,6) occ(85,11,10) occ(91,11,11) occ(126,11,3) occ(20,12,7) occ(24,12,11) occ(37,12,9) occ(51,12,2) occ(55,12,6) occ(59,12,10) occ(62,12,4) occ(66,12,8) occ(83,12,12) occ(124,12,5) occ(128,12,1)
Optimization: -97
Answer: 9
occ(1,6,11) occ(1,5,3) occ(1,10,9) occ(1,4,8) occ(2,2,6) occ(3,2,12) coverage(112) occ(5,1,10) occ(6,1,3) occ(12,1,2) occ(42,1,7) occ(55,1,11) occ(10,2,4) occ(44,2,5) occ(48,2,1) occ(53,2,9) occ(91,2,8) occ(110,2,2) occ(4,3,4) occ(7,3,9) occ(8,3,2) occ(14,3,1) occ(21,3,8) occ(40,3,6) occ(46,3,3) occ(47,3,5) occ(51,3,7) occ(57,3,12) occ(17,4,11) occ(23,4,10) occ(45,4,3) occ(50,4,2) occ(58,4,4) occ(62,4,6) occ(89,4,9) occ(93,4,7) occ(108,4,1) occ(9,5,8) occ(16,5,2) occ(19,5,9) occ(25,5,12) occ(37,5,4) occ(38,5,5) occ(49,5,6) occ(59,5,11) occ(87,5,7) occ(15,6,12) occ(39,6,6) occ(43,6,4) occ(52,6,1) occ(56,6,3) occ(60,6,5) occ(64,6,7) occ(85,6,9) occ(95,6,8) occ(106,6,2) occ(11,7,9) occ(18,7,1) occ(27,7,11) occ(31,7,7) occ(35,7,5) occ(36,7,4) occ(61,7,12) occ(65,7,10) occ(88,7,8) occ(13,8,11) occ(20,8,3) occ(29,8,9) occ(41,8,5) occ(54,8,2) occ(66,8,8) occ(67,8,12) occ(83,8,10) occ(90,8,6) occ(97,8,7) occ(104,8,1) occ(111,8,4) occ(26,9,1) occ(33,9,6) occ(34,9,3) occ(63,9,11) occ(69,9,10) occ(70,9,5) occ(73,9,12) occ(81,9,8) occ(86,9,9) occ(92,9,4) occ(109,9,2) occ(22,10,4) occ(28,10,3) occ(32,10,1) occ(68,10,7) occ(75,10,10) occ(80,10,11) occ(98,10,6) occ(99,10,8) occ(102,10,2) occ(24,11,2) occ(71,11,11) occ(72,11,6) occ(76,11,10) occ(79,11,9) occ(84,11,8) occ(94,11,5) occ(100,11,4) occ(103,11,7) occ(107,11,3) occ(30,12,2) occ(74,12,8) occ(77,12,11) occ(78,12,12) occ(82,12,10) occ(96,12,7) occ(101,12,9) occ(105,12,5)
Optimization: -112
Answer: 10
occ(1,6,11) occ(1,5,3) occ(1,10,9) occ(1,4,8) occ(2,2,6) occ(3,2,12) coverage(117) occ(4,1,4) occ(5,1,10) occ(42,1,7) occ(55,1,11) occ(94,1,9) occ(98,1,5) occ(116,1,2) occ(6,2,2) occ(9,2,11) occ(19,2,10) occ(44,2,5) occ(48,2,1) occ(53,2,9) occ(91,2,8) occ(96,2,7) occ(100,2,3) occ(114,2,4) occ(7,3,9) occ(21,3,8) occ(40,3,6) occ(46,3,3) occ(47,3,5) occ(51,3,7) occ(52,3,4) occ(57,3,12) occ(92,3,10) occ(102,3,1) occ(112,3,2) occ(8,4,1) occ(11,4,12) occ(17,4,11) occ(23,4,10) occ(45,4,3) occ(50,4,2) occ(54,4,6) occ(89,4,9) occ(93,4,7) occ(106,4,4) occ(13,5,10) occ(25,5,12) occ(37,5,4) occ(38,5,5) occ(49,5,6) occ(56,5,8) occ(59,5,11) occ(87,5,7) occ(90,5,9) occ(104,5,2) occ(110,5,1) occ(10,6,2) occ(15,6,12) occ(16,6,1) occ(39,6,6) occ(43,6,4) occ(76,6,9) occ(85,6,5) occ(95,6,8) occ(108,6,3) occ(14,7,3) occ(27,7,11) occ(31,7,7) occ(35,7,5) occ(36,7,4) occ(58,7,9) occ(61,7,12) occ(65,7,10) occ(72,7,6) occ(88,7,8) occ(12,8,1) occ(18,8,2) occ(24,8,3) occ(29,8,9) occ(41,8,5) occ(60,8,11) occ(67,8,12) occ(74,8,8) occ(78,8,10) occ(83,8,6) occ(97,8,7) occ(111,8,4) occ(20,9,4) occ(26,9,1) occ(33,9,6) occ(34,9,3) occ(63,9,11) occ(69,9,10) occ(70,9,5) occ(73,9,12) occ(81,9,8) occ(86,9,9) occ(109,9,2) occ(22,10,2) occ(28,10,3) occ(32,10,1) occ(62,10,12) occ(68,10,7) occ(75,10,10) occ(80,10,11) occ(99,10,8) occ(113,10,5) occ(64,11,10) occ(71,11,11) occ(79,11,9) occ(84,11,8) occ(103,11,7) occ(107,11,3) occ(30,12,2) occ(66,12,8) occ(77,12,11) occ(82,12,10) occ(101,12,9) occ(105,12,5) occ(115,12,4)
Optimization: -117
Answer: 11
occ(1,6,11) occ(1,5,3) occ(1,10,9) occ(1,4,8) occ(2,2,6) occ(3,2,12) coverage(121) occ(4,1,4) occ(7,1,9) occ(42,1,7) occ(55,1,11) occ(110,1,5) occ(116,1,10) occ(119,1,1) occ(120,1,12) occ(6,2,2) occ(9,2,11) occ(44,2,5) occ(48,2,1) occ(53,2,9) occ(91,2,8) occ(108,2,3) occ(112,2,7) occ(5,3,10) occ(21,3,8) occ(40,3,6) occ(46,3,3) occ(47,3,5) occ(51,3,7) occ(52,3,4) occ(57,3,12) occ(114,3,9) occ(117,3,2) occ(118,3,11) occ(8,4,1) occ(11,4,12) occ(17,4,11) occ(23,4,10) occ(45,4,3) occ(50,4,2) occ(54,4,6) occ(89,4,9) occ(93,4,7) occ(106,4,4) occ(13,5,10) occ(19,5,9) occ(25,5,12) occ(37,5,4) occ(38,5,5) occ(49,5,6) occ(56,5,8) occ(59,5,11) occ(87,5,7) occ(104,5,2) occ(115,5,1) occ(10,6,2) occ(15,6,12) occ(39,6,6) occ(43,6,4) occ(76,6,9) occ(85,6,5) occ(95,6,8) occ(100,6,3) occ(27,7,11) occ(31,7,7) occ(35,7,5) occ(36,7,4) occ(58,7,9) occ(61,7,12) occ(65,7,10) occ(72,7,6) occ(88,7,8) occ(102,7,1) occ(113,7,2) occ(12,8,1) occ(29,8,9) occ(41,8,5) occ(60,8,11) occ(67,8,12) occ(74,8,8) occ(78,8,10) occ(83,8,6) occ(97,8,7) occ(98,8,2) occ(111,8,4) occ(26,9,1) occ(33,9,6) occ(34,9,3) occ(63,9,11) occ(69,9,10) occ(70,9,5) occ(73,9,12) occ(81,9,8) occ(86,9,7) occ(90,9,9) occ(96,9,4) occ(109,9,2) occ(14,10,2) occ(20,10,5) occ(28,10,3) occ(32,10,1) occ(62,10,12) occ(75,10,10) occ(80,10,11) occ(92,10,7) occ(99,10,8) occ(16,11,4) occ(24,11,2) occ(64,11,10) occ(68,11,6) occ(71,11,11) occ(79,11,9) occ(84,11,8) occ(94,11,5) occ(103,11,7) occ(107,11,3) occ(18,12,6) occ(22,12,4) occ(30,12,2) occ(66,12,8) occ(77,12,11) occ(82,12,10) occ(101,12,9) occ(105,12,5)
Optimization: -121
Answer: 12
occ(1,6,11) occ(1,5,3) occ(1,10,9) occ(1,4,8) occ(2,2,6) occ(3,2,12) coverage(122) occ(4,1,4) occ(7,1,9) occ(42,1,7) occ(55,1,11) occ(110,1,5) occ(116,1,10) occ(120,1,12) occ(121,1,6) occ(6,2,2) occ(9,2,11) occ(44,2,5) occ(48,2,1) occ(53,2,9) occ(91,2,8) occ(108,2,3) occ(112,2,7) occ(119,2,4) occ(5,3,10) occ(21,3,8) occ(40,3,6) occ(46,3,3) occ(47,3,5) occ(51,3,7) occ(52,3,4) occ(57,3,12) occ(114,3,9) occ(117,3,2) occ(118,3,11) occ(8,4,1) occ(11,4,12) occ(17,4,11) occ(23,4,10) occ(45,4,3) occ(50,4,2) occ(54,4,6) occ(89,4,9) occ(93,4,7) occ(106,4,4) occ(13,5,10) occ(19,5,9) occ(25,5,12) occ(37,5,4) occ(38,5,5) occ(49,5,6) occ(59,5,11) occ(87,5,7) occ(104,5,2) occ(115,5,1) occ(10,6,2) occ(15,6,12) occ(39,6,6) occ(43,6,4) occ(56,6,7) occ(76,6,9) occ(85,6,5) occ(95,6,8) occ(100,6,3) occ(27,7,11) occ(31,7,7) occ(35,7,5) occ(36,7,4) occ(58,7,9) occ(61,7,12) occ(65,7,10) occ(72,7,6) occ(88,7,8) occ(102,7,1) occ(113,7,2) occ(12,8,1) occ(29,8,9) occ(41,8,5) occ(60,8,11) occ(67,8,12) occ(74,8,8) occ(78,8,10) occ(83,8,6) occ(97,8,7) occ(98,8,2) occ(111,8,4) occ(26,9,1) occ(33,9,6) occ(34,9,3) occ(63,9,11) occ(69,9,10) occ(70,9,5) occ(73,9,12) occ(81,9,8) occ(86,9,7) occ(90,9,9) occ(96,9,4) occ(109,9,2) occ(14,10,2) occ(20,10,5) occ(28,10,3) occ(32,10,1) occ(62,10,12) occ(75,10,10) occ(80,10,11) occ(92,10,7) occ(99,10,8) occ(16,11,4) occ(24,11,2) occ(64,11,10) occ(68,11,6) occ(71,11,11) occ(79,11,9) occ(84,11,8) occ(94,11,5) occ(103,11,7) occ(107,11,3) occ(18,12,6) occ(22,12,4) occ(30,12,2) occ(66,12,8) occ(77,12,11) occ(82,12,10) occ(101,12,9) occ(105,12,5)
Optimization: -122
Answer: 13
occ(1,6,11) occ(1,5,3) occ(1,10,9) occ(1,4,8) occ(2,2,6) occ(3,2,12) coverage(125) occ(7,1,9) occ(34,1,1) occ(40,1,2) occ(44,1,6) occ(73,1,12) occ(79,1,7) occ(9,2,11) occ(36,2,3) occ(42,2,4) occ(46,2,8) occ(62,2,2) occ(71,2,10) occ(77,2,9) occ(80,2,1) occ(81,2,5) occ(112,2,7) occ(4,3,8) occ(5,3,10) occ(13,3,12) occ(32,3,2) occ(38,3,1) occ(39,3,7) occ(64,3,4) occ(75,3,11) occ(82,3,3) occ(85,3,6) occ(110,3,9) occ(114,3,5) occ(11,4,10) occ(41,4,9) occ(48,4,7) occ(60,4,3) occ(66,4,6) occ(69,4,11) occ(78,4,2) occ(83,4,4) occ(123,4,12) occ(124,4,1) occ(6,5,9) occ(15,5,11) occ(30,5,1) occ(37,5,6) occ(50,5,5) occ(84,5,2) occ(87,5,7) occ(108,5,8) occ(116,5,4) occ(121,5,10) occ(8,6,7) occ(17,6,9) occ(43,6,10) occ(58,6,4) occ(67,6,12) occ(68,6,5) occ(72,6,3) occ(76,6,1) occ(118,6,6) occ(119,6,8) occ(122,6,2) occ(19,7,11) occ(28,7,2) occ(35,7,5) occ(45,7,12) occ(52,7,6) occ(65,7,10) occ(86,7,3) occ(89,7,8) occ(106,7,9) occ(120,7,4) occ(10,8,6) occ(21,8,9) occ(56,8,5) occ(63,8,12) occ(70,8,4) occ(74,8,2) occ(88,8,1) occ(91,8,10) occ(96,8,3) occ(104,8,11) occ(117,8,7) occ(12,9,8) occ(26,9,1) occ(33,9,6) occ(47,9,11) occ(54,9,7) occ(61,9,10) occ(90,9,3) occ(93,9,12) occ(98,9,5) occ(102,9,9) occ(109,9,2) occ(113,9,4) occ(20,10,3) occ(23,10,10) occ(29,10,5) occ(53,10,11) occ(59,10,12) occ(94,10,2) occ(99,10,8) occ(100,10,7) occ(103,10,4) occ(115,10,6) occ(14,11,9) occ(18,11,5) occ(24,11,2) occ(25,11,8) occ(31,11,7) occ(49,11,12) occ(57,11,10) occ(92,11,4) occ(95,11,11) occ(101,11,6) occ(107,11,1) occ(111,11,3) occ(16,12,7) occ(22,12,4) occ(27,12,6) occ(51,12,10) occ(55,12,12) occ(97,12,9) occ(105,12,3)
Optimization: -125
Answer: 14
occ(1,6,11) occ(1,5,3) occ(1,10,9) occ(1,4,8) occ(2,2,6) occ(3,2,12) coverage(126) occ(4,1,4) occ(7,1,9) occ(10,1,3) occ(44,1,6) occ(73,1,8) occ(79,1,7) occ(99,1,5) occ(6,2,2) occ(9,2,11) occ(12,2,5) occ(42,2,4) occ(46,2,8) occ(69,2,7) occ(75,2,10) occ(81,2,9) occ(93,2,1) occ(97,2,3) occ(5,3,10) occ(8,3,4) occ(13,3,12) occ(40,3,2) occ(71,3,9) occ(77,3,8) occ(83,3,11) occ(87,3,7) occ(91,3,3) occ(101,3,6) occ(118,3,5) occ(11,4,10) occ(14,4,4) occ(48,4,7) occ(67,4,6) occ(85,4,9) occ(89,4,5) occ(95,4,2) occ(116,4,3) occ(124,4,1) occ(125,4,11) occ(15,5,11) occ(38,5,1) occ(54,5,5) occ(65,5,8) occ(84,5,2) occ(103,5,7) occ(112,5,6) occ(120,5,4) occ(121,5,10) occ(127,5,9) occ(16,6,5) occ(21,6,9) occ(50,6,6) occ(63,6,10) occ(88,6,1) occ(108,6,7) occ(114,6,4) occ(119,6,8) occ(122,6,2) occ(123,6,12) occ(17,7,12) occ(23,7,11) occ(35,7,7) occ(36,7,2) occ(45,7,10) occ(52,7,4) occ(56,7,6) occ(82,7,1) occ(86,7,3) occ(105,7,8) occ(106,7,9) occ(110,7,5) occ(18,8,4) occ(19,8,10) occ(28,8,3) occ(32,8,1) occ(39,8,8) occ(43,8,12) occ(61,8,9) occ(90,8,2) occ(104,8,11) occ(107,8,6) occ(117,8,7) occ(25,9,12) occ(26,9,1) occ(33,9,8) occ(34,9,3) occ(37,9,6) occ(41,9,10) occ(47,9,11) occ(58,9,7) occ(80,9,2) occ(98,9,5) occ(102,9,9) occ(109,9,4) occ(20,10,3) occ(30,10,2) occ(53,10,11) occ(59,10,8) occ(60,10,5) occ(66,10,10) occ(92,10,1) occ(100,10,7) occ(115,10,6) occ(24,11,2) occ(27,11,11) occ(31,11,7) occ(49,11,12) occ(57,11,10) occ(64,11,8) occ(70,11,9) occ(74,11,5) occ(78,11,1) occ(96,11,4) occ(111,11,3) occ(22,12,4) occ(29,12,9) occ(51,12,10) occ(55,12,12) occ(62,12,6) occ(68,12,11) occ(72,12,7) occ(76,12,3) occ(94,12,2) occ(113,12,5)
Optimization: -126
Answer: 15
occ(1,6,11) occ(1,5,3) occ(1,10,9) occ(1,4,8) occ(2,2,6) occ(3,2,12) coverage(128) occ(7,1,9) occ(10,1,3) occ(44,1,6) occ(73,1,8) occ(79,1,7) occ(93,1,2) occ(99,1,5) occ(8,2,1) occ(9,2,11) occ(12,2,5) occ(42,2,4) occ(46,2,8) occ(69,2,7) occ(75,2,10) occ(81,2,9) occ(97,2,3) occ(126,2,2) occ(4,3,4) occ(5,3,10) occ(13,3,12) occ(40,3,2) occ(71,3,9) occ(77,3,8) occ(83,3,11) occ(87,3,7) occ(91,3,3) occ(95,3,1) occ(101,3,6) occ(118,3,5) occ(6,4,2) occ(11,4,10) occ(14,4,4) occ(48,4,7) occ(67,4,6) occ(85,4,9) occ(89,4,5) occ(116,4,3) occ(124,4,1) occ(125,4,11) occ(15,5,11) occ(38,5,1) occ(54,5,5) occ(65,5,8) occ(84,5,2) occ(103,5,7) occ(112,5,6) occ(120,5,4) occ(121,5,10) occ(127,5,9) occ(16,6,5) occ(21,6,9) occ(50,6,6) occ(63,6,10) occ(88,6,1) occ(108,6,7) occ(114,6,4) occ(119,6,8) occ(122,6,2) occ(123,6,12) occ(17,7,12) occ(23,7,11) occ(35,7,7) occ(36,7,2) occ(45,7,10) occ(52,7,4) occ(56,7,6) occ(82,7,1) occ(86,7,3) occ(105,7,8) occ(106,7,9) occ(110,7,5) occ(18,8,4) occ(19,8,10) occ(28,8,3) occ(32,8,1) occ(39,8,8) occ(43,8,12) occ(61,8,9) occ(90,8,2) occ(104,8,11) occ(107,8,6) occ(117,8,7) occ(25,9,12) occ(26,9,1) occ(33,9,8) occ(34,9,3) occ(37,9,6) occ(41,9,10) occ(47,9,11) occ(58,9,7) occ(80,9,2) occ(98,9,5) occ(102,9,9) occ(109,9,4) occ(20,10,3) occ(30,10,2) occ(53,10,11) occ(59,10,8) occ(60,10,5) occ(66,10,10) occ(92,10,1) occ(100,10,7) occ(115,10,6) occ(24,11,2) occ(27,11,11) occ(31,11,7) occ(49,11,12) occ(57,11,10) occ(64,11,8) occ(70,11,9) occ(74,11,5) occ(78,11,1) occ(96,11,4) occ(111,11,3) occ(22,12,4) occ(29,12,9) occ(51,12,10) occ(55,12,12) occ(62,12,6) occ(68,12,11) occ(72,12,7) occ(76,12,3) occ(94,12,2) occ(113,12,5)
Optimization: -128
Answer: 16
occ(1,6,11) occ(1,5,3) occ(1,10,9) occ(1,4,8) occ(2,2,6) occ(3,2,12) coverage(130) occ(10,1,3) occ(11,1,11) occ(44,1,6) occ(73,1,8) occ(79,1,7) occ(93,1,2) occ(99,1,5) occ(128,1,4) occ(8,2,1) occ(12,2,5) occ(42,2,4) occ(46,2,8) occ(69,2,7) occ(75,2,10) occ(81,2,9) occ(97,2,3) occ(125,2,11) occ(126,2,2) occ(4,3,4) occ(9,3,10) occ(13,3,12) occ(40,3,2) occ(71,3,9) occ(77,3,8) occ(83,3,11) occ(87,3,7) occ(91,3,3) occ(95,3,1) occ(101,3,6) occ(118,3,5) occ(5,4,11) occ(6,4,2) occ(14,4,4) occ(48,4,7) occ(67,4,6) occ(85,4,9) occ(89,4,5) occ(116,4,3) occ(123,4,12) occ(124,4,1) occ(127,4,10) occ(7,5,9) occ(15,5,11) occ(38,5,1) occ(54,5,5) occ(65,5,8) occ(84,5,2) occ(103,5,7) occ(112,5,6) occ(120,5,4) occ(121,5,10) occ(129,5,12) occ(16,6,5) occ(21,6,9) occ(50,6,6) occ(63,6,10) occ(88,6,1) occ(108,6,7) occ(114,6,4) occ(119,6,8) occ(122,6,2) occ(17,7,12) occ(23,7,11) occ(35,7,7) occ(36,7,2) occ(45,7,10) occ(52,7,4) occ(56,7,6) occ(82,7,1) occ(86,7,3) occ(105,7,8) occ(106,7,9) occ(110,7,5) occ(18,8,4) occ(19,8,10) occ(28,8,3) occ(32,8,1) occ(39,8,8) occ(43,8,12) occ(61,8,9) occ(90,8,2) occ(104,8,11) occ(107,8,6) occ(117,8,7) occ(25,9,12) occ(26,9,1) occ(33,9,8) occ(34,9,3) occ(37,9,6) occ(41,9,10) occ(47,9,11) occ(58,9,7) occ(80,9,2) occ(98,9,5) occ(102,9,9) occ(109,9,4) occ(20,10,3) occ(30,10,2) occ(53,10,11) occ(59,10,8) occ(60,10,5) occ(66,10,10) occ(92,10,1) occ(100,10,7) occ(115,10,6) occ(24,11,2) occ(27,11,11) occ(31,11,7) occ(49,11,12) occ(57,11,10) occ(64,11,8) occ(70,11,9) occ(74,11,5) occ(78,11,1) occ(96,11,4) occ(111,11,3) occ(22,12,4) occ(29,12,9) occ(51,12,10) occ(55,12,12) occ(62,12,6) occ(68,12,11) occ(72,12,7) occ(76,12,3) occ(94,12,2) occ(113,12,5)
Optimization: -130
Answer: 17
occ(1,6,11) occ(1,5,3) occ(1,10,9) occ(1,4,8) occ(2,2,6) occ(3,2,12) coverage(131) occ(4,1,4) occ(10,1,3) occ(11,1,11) occ(44,1,6) occ(71,1,9) occ(77,1,8) occ(81,1,10) occ(91,1,7) occ(99,1,5) occ(128,1,2) occ(6,2,2) occ(12,2,1) occ(42,2,4) occ(46,2,8) occ(69,2,7) occ(75,2,10) occ(89,2,9) occ(93,2,5) occ(97,2,3) occ(125,2,11) occ(8,3,4) occ(9,3,10) occ(13,3,12) occ(40,3,2) occ(73,3,8) occ(79,3,9) occ(83,3,11) occ(87,3,7) occ(101,3,6) occ(118,3,5) occ(126,3,3) occ(130,3,1) occ(5,4,11) occ(14,4,2) occ(48,4,7) occ(67,4,6) occ(85,4,9) occ(95,4,4) occ(116,4,3) occ(123,4,12) occ(124,4,1) occ(127,4,10) occ(7,5,9) occ(15,5,11) occ(38,5,1) occ(54,5,5) occ(65,5,8) occ(84,5,2) occ(103,5,7) occ(112,5,6) occ(120,5,4) occ(121,5,10) occ(129,5,12) occ(16,6,3) occ(21,6,9) occ(50,6,6) occ(63,6,10) occ(88,6,1) occ(108,6,7) occ(114,6,4) occ(119,6,8) occ(122,6,2) occ(17,7,12) occ(23,7,11) occ(35,7,7) occ(36,7,2) occ(45,7,10) occ(52,7,4) occ(56,7,6) occ(82,7,1) occ(86,7,3) occ(105,7,8) occ(106,7,9) occ(110,7,5) occ(18,8,4) occ(19,8,10) occ(28,8,3) occ(32,8,1) occ(39,8,8) occ(43,8,12) occ(61,8,9) occ(90,8,2) occ(104,8,11) occ(107,8,6) occ(117,8,7) occ(25,9,12) occ(26,9,1) occ(33,9,8) occ(34,9,3) occ(37,9,6) occ(41,9,10) occ(47,9,11) occ(58,9,7) occ(80,9,2) occ(98,9,5) occ(102,9,9) occ(109,9,4) occ(20,10,3) occ(30,10,2) occ(53,10,11) occ(59,10,8) occ(60,10,5) occ(66,10,10) occ(92,10,1) occ(100,10,7) occ(115,10,6) occ(24,11,2) occ(27,11,11) occ(31,11,7) occ(49,11,12) occ(57,11,10) occ(64,11,8) occ(70,11,9) occ(74,11,5) occ(78,11,1) occ(96,11,4) occ(111,11,3) occ(22,12,4) occ(29,12,9) occ(51,12,10) occ(55,12,12) occ(62,12,6) occ(68,12,11) occ(72,12,7) occ(76,12,3) occ(94,12,2) occ(113,12,5)
Optimization: -131
Answer: 18
occ(1,6,11) occ(1,5,3) occ(1,10,9) occ(1,4,8) occ(2,2,6) occ(3,2,12) coverage(132) occ(4,1,4) occ(10,1,3) occ(11,1,11) occ(44,1,6) occ(71,1,9) occ(77,1,8) occ(81,1,10) occ(91,1,7) occ(99,1,5) occ(128,1,2) occ(6,2,2) occ(12,2,1) occ(42,2,4) occ(46,2,8) occ(69,2,7) occ(75,2,10) occ(89,2,9) occ(93,2,5) occ(97,2,3) occ(125,2,11) occ(8,3,4) occ(9,3,10) occ(13,3,12) occ(40,3,2) occ(73,3,8) occ(79,3,9) occ(83,3,11) occ(87,3,7) occ(101,3,6) occ(118,3,5) occ(126,3,3) occ(130,3,1) occ(5,4,11) occ(14,4,2) occ(48,4,7) occ(67,4,6) occ(85,4,9) occ(95,4,4) occ(116,4,3) occ(123,4,12) occ(124,4,1) occ(127,4,10) occ(7,5,9) occ(15,5,11) occ(38,5,1) occ(54,5,5) occ(65,5,8) occ(84,5,2) occ(103,5,7) occ(112,5,6) occ(120,5,4) occ(121,5,10) occ(129,5,12) occ(16,6,3) occ(50,6,6) occ(63,6,10) occ(88,6,1) occ(108,6,7) occ(114,6,4) occ(119,6,8) occ(122,6,2) occ(17,7,12) occ(31,7,7) occ(36,7,2) occ(45,7,10) occ(52,7,4) occ(56,7,6) occ(82,7,1) occ(86,7,3) occ(105,7,8) occ(106,7,9) occ(110,7,5) occ(131,7,11) occ(18,8,4) occ(19,8,10) occ(28,8,3) occ(32,8,1) occ(33,8,5) occ(39,8,8) occ(43,8,12) occ(61,8,9) occ(90,8,2) occ(104,8,11) occ(107,8,6) occ(117,8,7) occ(21,9,12) occ(26,9,1) occ(29,9,8) occ(34,9,3) occ(37,9,6) occ(41,9,10) occ(47,9,11) occ(58,9,7) occ(80,9,2) occ(98,9,5) occ(102,9,9) occ(109,9,4) occ(20,10,3) occ(30,10,2) occ(35,10,4) occ(53,10,11) occ(59,10,8) occ(60,10,5) occ(66,10,10) occ(92,10,1) occ(100,10,7) occ(115,10,6) occ(23,11,11) occ(24,11,2) occ(27,11,7) occ(49,11,12) occ(57,11,10) occ(64,11,8) occ(70,11,9) occ(74,11,5) occ(78,11,1) occ(96,11,4) occ(111,11,3) occ(22,12,4) occ(25,12,9) occ(51,12,10) occ(55,12,12) occ(62,12,6) occ(68,12,11) occ(72,12,7) occ(76,12,3) occ(94,12,2) occ(113,12,5)
Optimization: -132
Answer: 19
occ(1,6,11) occ(1,5,3) occ(1,10,9) occ(1,4,8) occ(2,2,6) occ(3,2,12) coverage(133) occ(4,1,4) occ(10,1,3) occ(15,1,11) occ(44,1,6) occ(71,1,9) occ(77,1,8) occ(81,1,10) occ(91,1,7) occ(99,1,5) occ(6,2,2) occ(12,2,1) occ(42,2,4) occ(46,2,8) occ(69,2,7) occ(75,2,10) occ(89,2,9) occ(93,2,5) occ(97,2,3) occ(125,2,11) occ(8,3,4) occ(13,3,10) occ(17,3,12) occ(40,3,2) occ(50,3,5) occ(73,3,8) occ(79,3,9) occ(83,3,11) occ(87,3,7) occ(101,3,6) occ(126,3,3) occ(5,4,11) occ(14,4,2) occ(48,4,7) occ(52,4,3) occ(67,4,6) occ(85,4,9) occ(95,4,4) occ(123,4,12) occ(124,4,1) occ(127,4,10) occ(128,4,5) occ(11,5,9) occ(19,5,11) occ(38,5,1) occ(54,5,5) occ(65,5,8) occ(84,5,2) occ(103,5,7) occ(120,5,4) occ(121,5,10) occ(129,5,12) occ(132,5,6) occ(7,6,12) occ(16,6,3) occ(37,6,9) occ(63,6,10) occ(88,6,1) occ(108,6,7) occ(118,6,6) occ(119,6,8) occ(122,6,2) occ(130,6,4) occ(9,7,10) occ(21,7,12) occ(35,7,7) occ(36,7,2) occ(56,7,6) occ(82,7,1) occ(86,7,3) occ(105,7,8) occ(106,7,9) occ(110,7,5) occ(131,7,11) occ(18,8,4) occ(23,8,10) occ(28,8,3) occ(32,8,1) occ(39,8,8) occ(61,8,9) occ(90,8,2) occ(104,8,11) occ(107,8,6) occ(116,8,5) occ(117,8,7) occ(25,9,12) occ(26,9,1) occ(33,9,8) occ(34,9,3) occ(41,9,10) occ(58,9,7) occ(59,9,11) occ(80,9,2) occ(98,9,5) occ(102,9,9) occ(109,9,4) occ(112,9,6) occ(20,10,3) occ(30,10,2) occ(43,10,8) occ(53,10,11) occ(60,10,5) occ(66,10,10) occ(92,10,1) occ(100,10,7) occ(114,10,4) occ(115,10,6) occ(24,11,2) occ(27,11,11) occ(31,11,7) occ(45,11,6) occ(49,11,10) occ(57,11,12) occ(64,11,8) occ(70,11,9) occ(74,11,5) occ(78,11,1) occ(96,11,4) occ(111,11,3) occ(22,12,4) occ(29,12,9) occ(47,12,8) occ(51,12,12) occ(55,12,10) occ(62,12,6) occ(68,12,11) occ(72,12,7) occ(76,12,3) occ(94,12,2) occ(113,12,5)
Optimization: -133
Answer: 20
occ(1,6,11) occ(1,5,3) occ(1,10,9) occ(1,4,8) occ(2,2,6) occ(3,2,12) coverage(134) occ(4,1,4) occ(10,1,3) occ(15,1,11) occ(44,1,2) occ(71,1,9) occ(81,1,10) occ(85,1,6) occ(91,1,7) occ(99,1,5) occ(125,1,12) occ(6,2,2) occ(12,2,1) occ(42,2,4) occ(69,2,7) occ(77,2,11) occ(83,2,8) occ(89,2,9) occ(93,2,5) occ(97,2,3) occ(123,2,10) occ(8,3,4) occ(13,3,10) occ(17,3,12) occ(40,3,2) occ(46,3,1) occ(50,3,5) occ(73,3,8) occ(79,3,9) occ(87,3,7) occ(101,3,6) occ(126,3,3) occ(127,3,11) occ(5,4,11) occ(14,4,2) occ(48,4,3) occ(52,4,7) occ(67,4,6) occ(75,4,10) occ(95,4,4) occ(121,4,9) occ(124,4,1) occ(128,4,5) occ(11,5,9) occ(19,5,11) occ(38,5,1) occ(54,5,5) occ(65,5,8) occ(84,5,2) occ(103,5,7) occ(120,5,4) occ(129,5,12) occ(132,5,6) occ(133,5,10) occ(7,6,12) occ(16,6,3) occ(37,6,9) occ(63,6,10) occ(88,6,1) occ(108,6,7) occ(118,6,6) occ(119,6,8) occ(122,6,2) occ(130,6,4) occ(9,7,10) occ(21,7,12) occ(35,7,7) occ(36,7,2) occ(56,7,6) occ(82,7,1) occ(86,7,3) occ(105,7,8) occ(106,7,9) occ(110,7,5) occ(131,7,11) occ(18,8,4) occ(23,8,10) occ(28,8,3) occ(32,8,1) occ(39,8,8) occ(61,8,9) occ(90,8,2) occ(104,8,11) occ(107,8,6) occ(116,8,5) occ(117,8,7) occ(25,9,12) occ(26,9,1) occ(33,9,8) occ(34,9,3) occ(41,9,10) occ(58,9,7) occ(59,9,11) occ(80,9,2) occ(98,9,5) occ(102,9,9) occ(109,9,4) occ(112,9,6) occ(20,10,3) occ(30,10,2) occ(43,10,8) occ(53,10,11) occ(60,10,5) occ(66,10,10) occ(92,10,1) occ(100,10,7) occ(114,10,4) occ(115,10,6) occ(24,11,2) occ(27,11,11) occ(31,11,7) occ(45,11,6) occ(49,11,10) occ(57,11,12) occ(64,11,8) occ(70,11,9) occ(74,11,5) occ(78,11,1) occ(96,11,4) occ(111,11,3) occ(22,12,4) occ(29,12,9) occ(47,12,8) occ(51,12,12) occ(55,12,10) occ(62,12,6) occ(68,12,11) occ(72,12,7) occ(76,12,3) occ(94,12,2) occ(113,12,5)
Optimization: -134
Answer: 21
occ(1,6,11) occ(1,5,3) occ(1,10,9) occ(1,4,8) occ(2,2,6) occ(3,2,12) coverage(135) occ(4,1,4) occ(13,1,6) occ(36,1,8) occ(46,1,11) occ(50,1,7) occ(58,1,3) occ(71,1,9) occ(75,1,5) occ(81,1,2) occ(121,1,10) occ(6,2,2) occ(38,2,10) occ(48,2,9) occ(52,2,5) occ(60,2,1) occ(69,2,11) occ(73,2,7) occ(77,2,3) occ(87,2,4) occ(123,2,8) occ(11,3,7) occ(15,3,5) occ(34,3,9) occ(40,3,12) occ(44,3,10) occ(56,3,4) occ(68,3,6) occ(79,3,1) occ(83,3,3) occ(89,3,2) occ(119,3,11) occ(129,3,8) occ(5,4,11) occ(8,4,1) occ(9,4,9) occ(12,4,3) occ(54,4,6) occ(62,4,2) occ(67,4,12) occ(85,4,5) occ(91,4,4) occ(125,4,7) occ(131,4,10) occ(14,5,1) occ(17,5,4) occ(32,5,8) occ(42,5,11) occ(49,5,2) occ(53,5,6) occ(65,5,10) occ(66,5,5) occ(70,5,7) occ(117,5,12) occ(127,5,9) occ(7,6,10) occ(10,6,2) occ(51,6,4) occ(55,6,8) occ(61,6,7) occ(64,6,3) occ(93,6,5) occ(106,6,12) occ(133,6,9) occ(134,6,6) occ(16,7,2) occ(19,7,5) occ(30,7,7) occ(47,7,1) occ(57,7,6) occ(63,7,9) occ(72,7,8) occ(84,7,4) occ(95,7,3) occ(108,7,10) occ(109,7,12) occ(115,7,11) occ(18,8,4) occ(23,8,2) occ(37,8,3) occ(59,8,8) occ(74,8,6) occ(88,8,1) occ(97,8,5) occ(104,8,11) occ(110,8,12) occ(111,8,10) occ(120,8,9) occ(132,8,7) occ(20,9,6) occ(21,9,4) occ(28,9,8) occ(35,9,1) occ(45,9,2) occ(82,9,5) occ(86,9,3) occ(100,9,10) occ(107,9,11) occ(113,9,12) occ(122,9,7) occ(130,9,9) occ(25,10,1) occ(26,10,10) occ(29,10,3) occ(39,10,4) occ(76,10,5) occ(90,10,2) occ(99,10,6) occ(102,10,12) occ(112,10,11) occ(118,10,8) occ(128,10,7) occ(22,11,7) occ(33,11,2) occ(43,11,3) occ(80,11,4) occ(94,11,5) occ(98,11,9) occ(101,11,8) occ(105,11,12) occ(116,11,10) occ(124,11,6) occ(24,12,9) occ(27,12,2) occ(31,12,4) occ(41,12,5) occ(78,12,6) occ(92,12,3) occ(96,12,7) occ(103,12,10) occ(114,12,12) occ(126,12,8)
Optimization: -135
Answer: 22
occ(1,6,11) occ(1,5,3) occ(1,10,9) occ(1,4,8) occ(2,2,6) occ(3,2,12) coverage(136) occ(6,1,9) occ(9,1,12) occ(10,1,5) occ(13,1,10) occ(16,1,4) occ(42,1,11) occ(97,1,6) occ(111,1,1) occ(119,1,3) occ(123,1,7) occ(133,1,2) occ(7,2,10) occ(8,2,7) occ(14,2,2) occ(95,2,8) occ(99,2,4) occ(113,2,3) occ(117,2,1) occ(121,2,5) occ(125,2,9) occ(4,3,8) occ(11,3,11) occ(12,3,4) occ(15,3,9) occ(18,3,5) occ(40,3,12) occ(44,3,10) occ(105,3,6) occ(109,3,2) occ(127,3,7) occ(131,3,3) occ(135,3,1) occ(5,4,11) occ(17,4,7) occ(23,4,6) occ(38,4,10) occ(46,4,12) occ(93,4,9) occ(101,4,3) occ(107,4,4) occ(115,4,2) occ(129,4,5) occ(19,5,9) occ(20,5,6) occ(25,5,4) occ(36,5,12) occ(48,5,10) occ(56,5,2) occ(63,5,7) occ(80,5,8) occ(91,5,11) occ(98,5,1) occ(103,5,5) occ(21,6,7) occ(50,6,8) occ(54,6,4) occ(57,6,1) occ(61,6,5) occ(65,6,9) occ(70,6,2) occ(78,6,6) occ(87,6,12) occ(100,6,3) occ(126,6,10) occ(22,7,7) occ(27,7,5) occ(34,7,11) occ(52,7,6) occ(58,7,1) occ(59,7,3) occ(72,7,4) occ(76,7,8) occ(82,7,9) occ(89,7,10) occ(96,7,2) occ(124,7,12) occ(41,8,7) occ(45,8,3) occ(55,8,2) occ(67,8,8) occ(68,8,1) occ(74,8,6) occ(85,8,11) occ(92,8,5) occ(102,8,4) occ(122,8,10) occ(128,8,9) occ(24,9,6) occ(29,9,4) occ(32,9,12) occ(39,9,9) occ(43,9,5) occ(47,9,1) occ(60,9,2) occ(75,9,11) occ(84,9,10) occ(94,9,3) occ(120,9,8) occ(130,9,7) occ(37,10,11) occ(53,10,3) occ(66,10,2) occ(69,10,7) occ(79,10,10) occ(83,10,12) occ(86,10,8) occ(90,10,4) occ(104,10,5) occ(112,10,1) occ(118,10,6) occ(26,11,7) occ(30,11,11) occ(31,11,5) occ(35,11,9) occ(49,11,2) occ(62,11,1) occ(73,11,10) occ(77,11,12) occ(88,11,6) occ(108,11,4) occ(114,11,3) occ(132,11,8) occ(28,12,9) occ(33,12,7) occ(51,12,4) occ(64,12,3) occ(71,12,8) occ(81,12,11) occ(106,12,6) occ(110,12,2) occ(116,12,5) occ(134,12,10)
Optimization: -136
*** Info : (clingo): INTERRUPTED by signal!
SATISFIABLE

TIME LIMIT   : 1
Models       : 22+
  Optimum    : unknown
Optimization : -136
Calls        : 1
Time         : 300.000s (Solving: 294.84s 1st Model: 0.01s Unsat: 0.00s)
CPU Time     : 299.988s
